100
32
30
8
2
3
17
6
14
2
11
1
9
10
2
14
9
14
19
16
18
27
17
6
9
9
9
8
1
2
9
5
17
1
2
1
1
2
2
19
2
4
2
2
2
2
3
4
5
18
3
1
4
2
4
3
16
1
3
1
2
18
1
3
1
1
1
27
3
2
2
2
4
4
18
1
1
17
3
2
1
1
2
1
2
5
1
6
1
2
3
1
1
1
1
4
2
2
1
19
1
2